Route #1: 2 49 24 47 26 18 4 25
Route #2: 27 12 33 9 37 7 40 48 34
Route #3: 44 36 43 16 11 20 6
Route #4: 31 5 30
Route #5: 41 45 39 35 10
Route #6: 3 13 23 46 38 22 14
Route #7: 32 19 29 28 1
Route #8: 21 42 17 8 15
Cost 1336